(set-logic QF_FP)
(set-info :smt-lib-version 2.0)
(set-info :category "crafted")
(set-info :source |Alberto Griggio <griggio@fbk.eu>. These benchmarks were used for the evaluation in the following paper: L. Haller, A. Griggio, M. Brain, D. Kroening: Deciding floating-point logic with systematic abstraction. FMCAD 2012. Real-numbered literals have been automatically translated by MathSAT|)
(set-info :status unknown)
;; MathSAT API call trace
;; generated on 05/20/15 17:24:54

(declare-fun x () (_ FloatingPoint 8 24))
(declare-fun y__0 () (_ FloatingPoint 8 24))
(declare-fun y__1 () (_ FloatingPoint 8 24))
(declare-fun y__2 () (_ FloatingPoint 8 24))
(declare-fun y__3 () (_ FloatingPoint 8 24))
(declare-fun y__4 () (_ FloatingPoint 8 24))
(declare-fun y__5 () (_ FloatingPoint 8 24))
(declare-fun y__6 () (_ FloatingPoint 8 24))
(declare-fun y__7 () (_ FloatingPoint 8 24))
(declare-fun y__8 () (_ FloatingPoint 8 24))
(declare-fun y__9 () (_ FloatingPoint 8 24))
(declare-fun y__10 () (_ FloatingPoint 8 24))
(declare-fun y__11 () (_ FloatingPoint 8 24))
(declare-fun y__12 () (_ FloatingPoint 8 24))
(declare-fun y__13 () (_ FloatingPoint 8 24))
(declare-fun y__14 () (_ FloatingPoint 8 24))
(declare-fun y__15 () (_ FloatingPoint 8 24))
(declare-fun y__16 () (_ FloatingPoint 8 24))
(declare-fun y__17 () (_ FloatingPoint 8 24))
(declare-fun y__18 () (_ FloatingPoint 8 24))
(declare-fun y__19 () (_ FloatingPoint 8 24))
(declare-fun y__20 () (_ FloatingPoint 8 24))
(declare-fun y__21 () (_ FloatingPoint 8 24))
(declare-fun y__22 () (_ FloatingPoint 8 24))
(declare-fun y__23 () (_ FloatingPoint 8 24))
(declare-fun y__24 () (_ FloatingPoint 8 24))
(declare-fun y__25 () (_ FloatingPoint 8 24))
(declare-fun y__26 () (_ FloatingPoint 8 24))
(declare-fun y__27 () (_ FloatingPoint 8 24))
(declare-fun y__28 () (_ FloatingPoint 8 24))
(declare-fun y__29 () (_ FloatingPoint 8 24))
(declare-fun y__30 () (_ FloatingPoint 8 24))
(declare-fun y__31 () (_ FloatingPoint 8 24))
(declare-fun y__32 () (_ FloatingPoint 8 24))
(declare-fun y__33 () (_ FloatingPoint 8 24))
(declare-fun y__34 () (_ FloatingPoint 8 24))
(declare-fun y__35 () (_ FloatingPoint 8 24))
(declare-fun y__36 () (_ FloatingPoint 8 24))
(declare-fun y__37 () (_ FloatingPoint 8 24))
(declare-fun y__38 () (_ FloatingPoint 8 24))
(declare-fun y__39 () (_ FloatingPoint 8 24))
(declare-fun y__40 () (_ FloatingPoint 8 24))
(declare-fun y__41 () (_ FloatingPoint 8 24))
(declare-fun y__42 () (_ FloatingPoint 8 24))
(declare-fun y__43 () (_ FloatingPoint 8 24))
(declare-fun y__44 () (_ FloatingPoint 8 24))
(declare-fun y__45 () (_ FloatingPoint 8 24))
(declare-fun y__46 () (_ FloatingPoint 8 24))
(declare-fun y__47 () (_ FloatingPoint 8 24))
(declare-fun y__48 () (_ FloatingPoint 8 24))
(declare-fun y__49 () (_ FloatingPoint 8 24))
(declare-fun y__50 () (_ FloatingPoint 8 24))
(declare-fun y__51 () (_ FloatingPoint 8 24))
(declare-fun y__52 () (_ FloatingPoint 8 24))
(declare-fun y__53 () (_ FloatingPoint 8 24))
(declare-fun y__54 () (_ FloatingPoint 8 24))
(declare-fun y__55 () (_ FloatingPoint 8 24))
(declare-fun y__56 () (_ FloatingPoint 8 24))
(declare-fun y__57 () (_ FloatingPoint 8 24))
(declare-fun y__58 () (_ FloatingPoint 8 24))
(declare-fun y__59 () (_ FloatingPoint 8 24))
(declare-fun y__60 () (_ FloatingPoint 8 24))
(declare-fun y__61 () (_ FloatingPoint 8 24))
(declare-fun y__62 () (_ FloatingPoint 8 24))
(declare-fun y__63 () (_ FloatingPoint 8 24))
(declare-fun y__64 () (_ FloatingPoint 8 24))
(declare-fun z__0 () (_ FloatingPoint 8 24))
(declare-fun z__1 () (_ FloatingPoint 8 24))
(declare-fun z__2 () (_ FloatingPoint 8 24))
(declare-fun z__3 () (_ FloatingPoint 8 24))
(declare-fun z__4 () (_ FloatingPoint 8 24))
(declare-fun z__5 () (_ FloatingPoint 8 24))
(declare-fun z__6 () (_ FloatingPoint 8 24))
(declare-fun z__7 () (_ FloatingPoint 8 24))
(declare-fun z__8 () (_ FloatingPoint 8 24))
(declare-fun z__9 () (_ FloatingPoint 8 24))
(declare-fun z__10 () (_ FloatingPoint 8 24))
(declare-fun z__11 () (_ FloatingPoint 8 24))
(declare-fun z__12 () (_ FloatingPoint 8 24))
(declare-fun z__13 () (_ FloatingPoint 8 24))
(declare-fun z__14 () (_ FloatingPoint 8 24))
(declare-fun z__15 () (_ FloatingPoint 8 24))
(declare-fun z__16 () (_ FloatingPoint 8 24))
(declare-fun z__17 () (_ FloatingPoint 8 24))
(declare-fun z__18 () (_ FloatingPoint 8 24))
(declare-fun z__19 () (_ FloatingPoint 8 24))
(declare-fun z__20 () (_ FloatingPoint 8 24))
(declare-fun z__21 () (_ FloatingPoint 8 24))
(declare-fun z__22 () (_ FloatingPoint 8 24))
(declare-fun z__23 () (_ FloatingPoint 8 24))
(declare-fun z__24 () (_ FloatingPoint 8 24))
(declare-fun z__25 () (_ FloatingPoint 8 24))
(declare-fun z__26 () (_ FloatingPoint 8 24))
(declare-fun z__27 () (_ FloatingPoint 8 24))
(declare-fun z__28 () (_ FloatingPoint 8 24))
(declare-fun z__29 () (_ FloatingPoint 8 24))
(declare-fun z__30 () (_ FloatingPoint 8 24))
(declare-fun z__31 () (_ FloatingPoint 8 24))
(declare-fun z__32 () (_ FloatingPoint 8 24))
(declare-fun z__33 () (_ FloatingPoint 8 24))
(declare-fun z__34 () (_ FloatingPoint 8 24))
(declare-fun z__35 () (_ FloatingPoint 8 24))
(declare-fun z__36 () (_ FloatingPoint 8 24))
(declare-fun z__37 () (_ FloatingPoint 8 24))
(declare-fun z__38 () (_ FloatingPoint 8 24))
(declare-fun z__39 () (_ FloatingPoint 8 24))
(declare-fun z__40 () (_ FloatingPoint 8 24))
(declare-fun z__41 () (_ FloatingPoint 8 24))
(declare-fun z__42 () (_ FloatingPoint 8 24))
(declare-fun z__43 () (_ FloatingPoint 8 24))
(declare-fun z__44 () (_ FloatingPoint 8 24))
(declare-fun z__45 () (_ FloatingPoint 8 24))
(declare-fun z__46 () (_ FloatingPoint 8 24))
(declare-fun z__47 () (_ FloatingPoint 8 24))
(declare-fun z__48 () (_ FloatingPoint 8 24))
(declare-fun z__49 () (_ FloatingPoint 8 24))
(declare-fun z__50 () (_ FloatingPoint 8 24))
(declare-fun z__51 () (_ FloatingPoint 8 24))
(declare-fun z__52 () (_ FloatingPoint 8 24))
(declare-fun z__53 () (_ FloatingPoint 8 24))
(declare-fun z__54 () (_ FloatingPoint 8 24))
(declare-fun z__55 () (_ FloatingPoint 8 24))
(declare-fun z__56 () (_ FloatingPoint 8 24))
(declare-fun z__57 () (_ FloatingPoint 8 24))
(declare-fun z__58 () (_ FloatingPoint 8 24))
(declare-fun z__59 () (_ FloatingPoint 8 24))
(declare-fun z__60 () (_ FloatingPoint 8 24))
(declare-fun z__61 () (_ FloatingPoint 8 24))
(declare-fun z__62 () (_ FloatingPoint 8 24))
(declare-fun z__63 () (_ FloatingPoint 8 24))
(declare-fun z__64 () (_ FloatingPoint 8 24))
(check-sat)
